p cnf 32 244
1 5 9 13 17 21 25 29 0
2 6 10 14 18 22 26 30 0
3 7 11 15 19 23 27 31 0
4 8 12 16 20 24 28 32 0
-1 -2 0
-1 -3 0
-1 -4 0
-2 -3 0
-2 -4 0
-3 -4 0
-5 -6 0
-5 -7 0
-5 -8 0
-6 -7 0
-6 -8 0
-7 -8 0
-9 -10 0
-9 -11 0
-9 -12 0
-10 -11 0
-10 -12 0
-11 -12 0
-13 -14 0
-13 -15 0
-13 -16 0
-14 -15 0
-14 -16 0
-15 -16 0
-17 -18 0
-17 -19 0
-17 -20 0
-18 -19 0
-18 -20 0
-19 -20 0
-21 -22 0
-21 -23 0
-21 -24 0
-22 -23 0
-22 -24 0
-23 -24 0
-25 -26 0
-25 -27 0
-25 -28 0
-26 -27 0
-26 -28 0
-27 -28 0
-29 -30 0
-29 -31 0
-29 -32 0
-30 -31 0
-30 -32 0
-31 -32 0
-1 -6 0
-1 -7 0
-1 -8 0
-2 -5 0
-2 -7 0
-2 -8 0
-3 -5 0
-3 -6 0
-3 -8 0
-4 -5 0
-4 -6 0
-4 -7 0
-1 -18 0
-1 -19 0
-1 -20 0
-2 -17 0
-2 -19 0
-2 -20 0
-3 -17 0
-3 -18 0
-3 -20 0
-4 -17 0
-4 -18 0
-4 -19 0
-1 -22 0
-1 -23 0
-1 -24 0
-2 -21 0
-2 -23 0
-2 -24 0
-3 -21 0
-3 -22 0
-3 -24 0
-4 -21 0
-4 -22 0
-4 -23 0
-1 -26 0
-1 -27 0
-1 -28 0
-2 -25 0
-2 -27 0
-2 -28 0
-3 -25 0
-3 -26 0
-3 -28 0
-4 -25 0
-4 -26 0
-4 -27 0
-5 -14 0
-5 -15 0
-5 -16 0
-6 -13 0
-6 -15 0
-6 -16 0
-7 -13 0
-7 -14 0
-7 -16 0
-8 -13 0
-8 -14 0
-8 -15 0
-5 -22 0
-5 -23 0
-5 -24 0
-6 -21 0
-6 -23 0
-6 -24 0
-7 -21 0
-7 -22 0
-7 -24 0
-8 -21 0
-8 -22 0
-8 -23 0
-5 -26 0
-5 -27 0
-5 -28 0
-6 -25 0
-6 -27 0
-6 -28 0
-7 -25 0
-7 -26 0
-7 -28 0
-8 -25 0
-8 -26 0
-8 -27 0
-9 -18 0
-9 -19 0
-9 -20 0
-10 -17 0
-10 -19 0
-10 -20 0
-11 -17 0
-11 -18 0
-11 -20 0
-12 -17 0
-12 -18 0
-12 -19 0
-9 -22 0
-9 -23 0
-9 -24 0
-10 -21 0
-10 -23 0
-10 -24 0
-11 -21 0
-11 -22 0
-11 -24 0
-12 -21 0
-12 -22 0
-12 -23 0
-9 -26 0
-9 -27 0
-9 -28 0
-10 -25 0
-10 -27 0
-10 -28 0
-11 -25 0
-11 -26 0
-11 -28 0
-12 -25 0
-12 -26 0
-12 -27 0
-9 -30 0
-9 -31 0
-9 -32 0
-10 -29 0
-10 -31 0
-10 -32 0
-11 -29 0
-11 -30 0
-11 -32 0
-12 -29 0
-12 -30 0
-12 -31 0
-13 -18 0
-13 -19 0
-13 -20 0
-14 -17 0
-14 -19 0
-14 -20 0
-15 -17 0
-15 -18 0
-15 -20 0
-16 -17 0
-16 -18 0
-16 -19 0
-13 -22 0
-13 -23 0
-13 -24 0
-14 -21 0
-14 -23 0
-14 -24 0
-15 -21 0
-15 -22 0
-15 -24 0
-16 -21 0
-16 -22 0
-16 -23 0
-17 -22 0
-17 -23 0
-17 -24 0
-18 -21 0
-18 -23 0
-18 -24 0
-19 -21 0
-19 -22 0
-19 -24 0
-20 -21 0
-20 -22 0
-20 -23 0
-17 -30 0
-17 -31 0
-17 -32 0
-18 -29 0
-18 -31 0
-18 -32 0
-19 -29 0
-19 -30 0
-19 -32 0
-20 -29 0
-20 -30 0
-20 -31 0
-21 -26 0
-21 -27 0
-21 -28 0
-22 -25 0
-22 -27 0
-22 -28 0
-23 -25 0
-23 -26 0
-23 -28 0
-24 -25 0
-24 -26 0
-24 -27 0
